(set-logic QF_LRA)
(declare-fun X0 () Real )
(declare-fun Y0 () Real )
(declare-fun X1 () Real )
(declare-fun Y1 () Real )
(declare-fun X2 () Real )
(declare-fun Y2 () Real )
(declare-fun X3 () Real )
(declare-fun Y3 () Real )
(declare-fun X4 () Real )
(declare-fun Y4 () Real )
(declare-fun X5 () Real )
(declare-fun Y5 () Real )
(declare-fun X6 () Real )
(declare-fun Y6 () Real )
(declare-fun X7 () Real )
(declare-fun Y7 () Real )
(declare-fun X8 () Real )
(declare-fun Y8 () Real )
(declare-fun X9 () Real )
(declare-fun Y9 () Real )
(declare-fun X10 () Real )
(declare-fun Y10 () Real )
(declare-fun X11 () Real )
(declare-fun Y11 () Real )
(declare-fun Z () Real )
(declare-fun k () Real )
(assert (let
(( $goal (>= Z k) ))
(let
((
$phi ( and 
( or ( <= ( + X0 36 ) X1 )  ( <= ( + X1 44 ) X0 )  ( <= ( + Y0 13 ) Y1 )  ( <= ( + Y1 60 ) Y0 )  )
( or ( <= ( + X0 36 ) X2 )  ( <= ( + X2 24 ) X0 )  ( <= ( + Y0 13 ) Y2 )  ( <= ( + Y2 95 ) Y0 )  )
( or ( <= ( + X0 36 ) X3 )  ( <= ( + X3 11 ) X0 )  ( <= ( + Y0 13 ) Y3 )  ( <= ( + Y3 49 ) Y0 )  )
( or ( <= ( + X0 36 ) X4 )  ( <= ( + X4 47 ) X0 )  ( <= ( + Y0 13 ) Y4 )  ( <= ( + Y4 86 ) Y0 )  )
( or ( <= ( + X0 36 ) X5 )  ( <= ( + X5 63 ) X0 )  ( <= ( + Y0 13 ) Y5 )  ( <= ( + Y5 92 ) Y0 )  )
( or ( <= ( + X0 36 ) X6 )  ( <= ( + X6 32 ) X0 )  ( <= ( + Y0 13 ) Y6 )  ( <= ( + Y6 88 ) Y0 )  )
( or ( <= ( + X0 36 ) X7 )  ( <= ( + X7 57 ) X0 )  ( <= ( + Y0 13 ) Y7 )  ( <= ( + Y7 79 ) Y0 )  )
( or ( <= ( + X0 36 ) X8 )  ( <= ( + X8 3 ) X0 )  ( <= ( + Y0 13 ) Y8 )  ( <= ( + Y8 8 ) Y0 )  )
( or ( <= ( + X0 36 ) X9 )  ( <= ( + X9 1 ) X0 )  ( <= ( + Y0 13 ) Y9 )  ( <= ( + Y9 23 ) Y0 )  )
( or ( <= ( + X0 36 ) X10 )  ( <= ( + X10 20 ) X0 )  ( <= ( + Y0 13 ) Y10 )  ( <= ( + Y10 88 ) Y0 )  )
( or ( <= ( + X0 36 ) X11 )  ( <= ( + X11 64 ) X0 )  ( <= ( + Y0 13 ) Y11 )  ( <= ( + Y11 41 ) Y0 )  )
( or ( <= ( + X1 44 ) X2 )  ( <= ( + X2 24 ) X1 )  ( <= ( + Y1 60 ) Y2 )  ( <= ( + Y2 95 ) Y1 )  )
( or ( <= ( + X1 44 ) X3 )  ( <= ( + X3 11 ) X1 )  ( <= ( + Y1 60 ) Y3 )  ( <= ( + Y3 49 ) Y1 )  )
( or ( <= ( + X1 44 ) X4 )  ( <= ( + X4 47 ) X1 )  ( <= ( + Y1 60 ) Y4 )  ( <= ( + Y4 86 ) Y1 )  )
( or ( <= ( + X1 44 ) X5 )  ( <= ( + X5 63 ) X1 )  ( <= ( + Y1 60 ) Y5 )  ( <= ( + Y5 92 ) Y1 )  )
( or ( <= ( + X1 44 ) X6 )  ( <= ( + X6 32 ) X1 )  ( <= ( + Y1 60 ) Y6 )  ( <= ( + Y6 88 ) Y1 )  )
( or ( <= ( + X1 44 ) X7 )  ( <= ( + X7 57 ) X1 )  ( <= ( + Y1 60 ) Y7 )  ( <= ( + Y7 79 ) Y1 )  )
( or ( <= ( + X1 44 ) X8 )  ( <= ( + X8 3 ) X1 )  ( <= ( + Y1 60 ) Y8 )  ( <= ( + Y8 8 ) Y1 )  )
( or ( <= ( + X1 44 ) X9 )  ( <= ( + X9 1 ) X1 )  ( <= ( + Y1 60 ) Y9 )  ( <= ( + Y9 23 ) Y1 )  )
( or ( <= ( + X1 44 ) X10 )  ( <= ( + X10 20 ) X1 )  ( <= ( + Y1 60 ) Y10 )  ( <= ( + Y10 88 ) Y1 )  )
( or ( <= ( + X1 44 ) X11 )  ( <= ( + X11 64 ) X1 )  ( <= ( + Y1 60 ) Y11 )  ( <= ( + Y11 41 ) Y1 )  )
( or ( <= ( + X2 24 ) X3 )  ( <= ( + X3 11 ) X2 )  ( <= ( + Y2 95 ) Y3 )  ( <= ( + Y3 49 ) Y2 )  )
( or ( <= ( + X2 24 ) X4 )  ( <= ( + X4 47 ) X2 )  ( <= ( + Y2 95 ) Y4 )  ( <= ( + Y4 86 ) Y2 )  )
( or ( <= ( + X2 24 ) X5 )  ( <= ( + X5 63 ) X2 )  ( <= ( + Y2 95 ) Y5 )  ( <= ( + Y5 92 ) Y2 )  )
( or ( <= ( + X2 24 ) X6 )  ( <= ( + X6 32 ) X2 )  ( <= ( + Y2 95 ) Y6 )  ( <= ( + Y6 88 ) Y2 )  )
( or ( <= ( + X2 24 ) X7 )  ( <= ( + X7 57 ) X2 )  ( <= ( + Y2 95 ) Y7 )  ( <= ( + Y7 79 ) Y2 )  )
( or ( <= ( + X2 24 ) X8 )  ( <= ( + X8 3 ) X2 )  ( <= ( + Y2 95 ) Y8 )  ( <= ( + Y8 8 ) Y2 )  )
( or ( <= ( + X2 24 ) X9 )  ( <= ( + X9 1 ) X2 )  ( <= ( + Y2 95 ) Y9 )  ( <= ( + Y9 23 ) Y2 )  )
( or ( <= ( + X2 24 ) X10 )  ( <= ( + X10 20 ) X2 )  ( <= ( + Y2 95 ) Y10 )  ( <= ( + Y10 88 ) Y2 )  )
( or ( <= ( + X2 24 ) X11 )  ( <= ( + X11 64 ) X2 )  ( <= ( + Y2 95 ) Y11 )  ( <= ( + Y11 41 ) Y2 )  )
( or ( <= ( + X3 11 ) X4 )  ( <= ( + X4 47 ) X3 )  ( <= ( + Y3 49 ) Y4 )  ( <= ( + Y4 86 ) Y3 )  )
( or ( <= ( + X3 11 ) X5 )  ( <= ( + X5 63 ) X3 )  ( <= ( + Y3 49 ) Y5 )  ( <= ( + Y5 92 ) Y3 )  )
( or ( <= ( + X3 11 ) X6 )  ( <= ( + X6 32 ) X3 )  ( <= ( + Y3 49 ) Y6 )  ( <= ( + Y6 88 ) Y3 )  )
( or ( <= ( + X3 11 ) X7 )  ( <= ( + X7 57 ) X3 )  ( <= ( + Y3 49 ) Y7 )  ( <= ( + Y7 79 ) Y3 )  )
( or ( <= ( + X3 11 ) X8 )  ( <= ( + X8 3 ) X3 )  ( <= ( + Y3 49 ) Y8 )  ( <= ( + Y8 8 ) Y3 )  )
( or ( <= ( + X3 11 ) X9 )  ( <= ( + X9 1 ) X3 )  ( <= ( + Y3 49 ) Y9 )  ( <= ( + Y9 23 ) Y3 )  )
( or ( <= ( + X3 11 ) X10 )  ( <= ( + X10 20 ) X3 )  ( <= ( + Y3 49 ) Y10 )  ( <= ( + Y10 88 ) Y3 )  )
( or ( <= ( + X3 11 ) X11 )  ( <= ( + X11 64 ) X3 )  ( <= ( + Y3 49 ) Y11 )  ( <= ( + Y11 41 ) Y3 )  )
( or ( <= ( + X4 47 ) X5 )  ( <= ( + X5 63 ) X4 )  ( <= ( + Y4 86 ) Y5 )  ( <= ( + Y5 92 ) Y4 )  )
( or ( <= ( + X4 47 ) X6 )  ( <= ( + X6 32 ) X4 )  ( <= ( + Y4 86 ) Y6 )  ( <= ( + Y6 88 ) Y4 )  )
( or ( <= ( + X4 47 ) X7 )  ( <= ( + X7 57 ) X4 )  ( <= ( + Y4 86 ) Y7 )  ( <= ( + Y7 79 ) Y4 )  )
( or ( <= ( + X4 47 ) X8 )  ( <= ( + X8 3 ) X4 )  ( <= ( + Y4 86 ) Y8 )  ( <= ( + Y8 8 ) Y4 )  )
( or ( <= ( + X4 47 ) X9 )  ( <= ( + X9 1 ) X4 )  ( <= ( + Y4 86 ) Y9 )  ( <= ( + Y9 23 ) Y4 )  )
( or ( <= ( + X4 47 ) X10 )  ( <= ( + X10 20 ) X4 )  ( <= ( + Y4 86 ) Y10 )  ( <= ( + Y10 88 ) Y4 )  )
( or ( <= ( + X4 47 ) X11 )  ( <= ( + X11 64 ) X4 )  ( <= ( + Y4 86 ) Y11 )  ( <= ( + Y11 41 ) Y4 )  )
( or ( <= ( + X5 63 ) X6 )  ( <= ( + X6 32 ) X5 )  ( <= ( + Y5 92 ) Y6 )  ( <= ( + Y6 88 ) Y5 )  )
( or ( <= ( + X5 63 ) X7 )  ( <= ( + X7 57 ) X5 )  ( <= ( + Y5 92 ) Y7 )  ( <= ( + Y7 79 ) Y5 )  )
( or ( <= ( + X5 63 ) X8 )  ( <= ( + X8 3 ) X5 )  ( <= ( + Y5 92 ) Y8 )  ( <= ( + Y8 8 ) Y5 )  )
( or ( <= ( + X5 63 ) X9 )  ( <= ( + X9 1 ) X5 )  ( <= ( + Y5 92 ) Y9 )  ( <= ( + Y9 23 ) Y5 )  )
( or ( <= ( + X5 63 ) X10 )  ( <= ( + X10 20 ) X5 )  ( <= ( + Y5 92 ) Y10 )  ( <= ( + Y10 88 ) Y5 )  )
( or ( <= ( + X5 63 ) X11 )  ( <= ( + X11 64 ) X5 )  ( <= ( + Y5 92 ) Y11 )  ( <= ( + Y11 41 ) Y5 )  )
( or ( <= ( + X6 32 ) X7 )  ( <= ( + X7 57 ) X6 )  ( <= ( + Y6 88 ) Y7 )  ( <= ( + Y7 79 ) Y6 )  )
( or ( <= ( + X6 32 ) X8 )  ( <= ( + X8 3 ) X6 )  ( <= ( + Y6 88 ) Y8 )  ( <= ( + Y8 8 ) Y6 )  )
( or ( <= ( + X6 32 ) X9 )  ( <= ( + X9 1 ) X6 )  ( <= ( + Y6 88 ) Y9 )  ( <= ( + Y9 23 ) Y6 )  )
( or ( <= ( + X6 32 ) X10 )  ( <= ( + X10 20 ) X6 )  ( <= ( + Y6 88 ) Y10 )  ( <= ( + Y10 88 ) Y6 )  )
( or ( <= ( + X6 32 ) X11 )  ( <= ( + X11 64 ) X6 )  ( <= ( + Y6 88 ) Y11 )  ( <= ( + Y11 41 ) Y6 )  )
( or ( <= ( + X7 57 ) X8 )  ( <= ( + X8 3 ) X7 )  ( <= ( + Y7 79 ) Y8 )  ( <= ( + Y8 8 ) Y7 )  )
( or ( <= ( + X7 57 ) X9 )  ( <= ( + X9 1 ) X7 )  ( <= ( + Y7 79 ) Y9 )  ( <= ( + Y9 23 ) Y7 )  )
( or ( <= ( + X7 57 ) X10 )  ( <= ( + X10 20 ) X7 )  ( <= ( + Y7 79 ) Y10 )  ( <= ( + Y10 88 ) Y7 )  )
( or ( <= ( + X7 57 ) X11 )  ( <= ( + X11 64 ) X7 )  ( <= ( + Y7 79 ) Y11 )  ( <= ( + Y11 41 ) Y7 )  )
( or ( <= ( + X8 3 ) X9 )  ( <= ( + X9 1 ) X8 )  ( <= ( + Y8 8 ) Y9 )  ( <= ( + Y9 23 ) Y8 )  )
( or ( <= ( + X8 3 ) X10 )  ( <= ( + X10 20 ) X8 )  ( <= ( + Y8 8 ) Y10 )  ( <= ( + Y10 88 ) Y8 )  )
( or ( <= ( + X8 3 ) X11 )  ( <= ( + X11 64 ) X8 )  ( <= ( + Y8 8 ) Y11 )  ( <= ( + Y11 41 ) Y8 )  )
( or ( <= ( + X9 1 ) X10 )  ( <= ( + X10 20 ) X9 )  ( <= ( + Y9 23 ) Y10 )  ( <= ( + Y10 88 ) Y9 )  )
( or ( <= ( + X9 1 ) X11 )  ( <= ( + X11 64 ) X9 )  ( <= ( + Y9 23 ) Y11 )  ( <= ( + Y11 41 ) Y9 )  )
( or ( <= ( + X10 20 ) X11 )  ( <= ( + X11 64 ) X10 )  ( <= ( + Y10 88 ) Y11 )  ( <= ( + Y11 41 ) Y10 )  )
( >= X0 0)
( <= ( + X0 36) Z)
( >= Y0 0)
( <= ( + Y0 13 ) 173)
( >= X1 0)
( <= ( + X1 44) Z)
( >= Y1 0)
( <= ( + Y1 60 ) 173)
( >= X2 0)
( <= ( + X2 24) Z)
( >= Y2 0)
( <= ( + Y2 95 ) 173)
( >= X3 0)
( <= ( + X3 11) Z)
( >= Y3 0)
( <= ( + Y3 49 ) 173)
( >= X4 0)
( <= ( + X4 47) Z)
( >= Y4 0)
( <= ( + Y4 86 ) 173)
( >= X5 0)
( <= ( + X5 63) Z)
( >= Y5 0)
( <= ( + Y5 92 ) 173)
( >= X6 0)
( <= ( + X6 32) Z)
( >= Y6 0)
( <= ( + Y6 88 ) 173)
( >= X7 0)
( <= ( + X7 57) Z)
( >= Y7 0)
( <= ( + Y7 79 ) 173)
( >= X8 0)
( <= ( + X8 3) Z)
( >= Y8 0)
( <= ( + Y8 8 ) 173)
( >= X9 0)
( <= ( + X9 1) Z)
( >= Y9 0)
( <= ( + Y9 23 ) 173)
( >= X10 0)
( <= ( + X10 20) Z)
( >= Y10 0)
( <= ( + Y10 88 ) 173)
( >= X11 0)
( <= ( + X11 64) Z)
( >= Y11 0)
( <= ( + Y11 41 ) 173)
) )
)(=> $phi $goal))))